sat
(
  (define-fun StorageProv2 () Int
    141000)
  (define-fun C4_VM1 () Int
    0)
  (define-fun C1_VM3 () Int
    0)
  (define-fun MemProv2 () Int
    6750)
  (define-fun PriceProv4 () Int
    240)
  (define-fun C2_VM5 () Int
    1)
  (define-fun PriceProv5 () Int
    480)
  (define-fun C4_VM3 () Int
    0)
  (define-fun VM1Type () Int
    0)
  (define-fun PriceProv1 () Int
    0)
  (define-fun VM4Type () Int
    7)
  (define-fun C5_VM5 () Int
    0)
  (define-fun PriceProv3 () Int
    0)
  (define-fun C3_VM5 () Int
    1)
  (define-fun StorageProv3 () Int
    19499)
  (define-fun StorageProv5 () Int
    141000)
  (define-fun C1_VM2 () Int
    1)
  (define-fun VM3Type () Int
    0)
  (define-fun C1_VM5 () Int
    0)
  (define-fun MemProv3 () Int
    28351)
  (define-fun VM2Type () Int
    10)
  (define-fun C4_VM5 () Int
    1)
  (define-fun C3_VM3 () Int
    0)
  (define-fun MemProv4 () Int
    3150)
  (define-fun ProcProv4 () Int
    1800)
  (define-fun C1_VM4 () Int
    0)
  (define-fun C5_VM4 () Int
    1)
  (define-fun ProcProv1 () Int
    7201)
  (define-fun MemProv5 () Int
    6750)
  (define-fun StorageProv1 () Int
    141001)
  (define-fun ProcProv5 () Int
    3600)
  (define-fun StorageProv4 () Int
    69000)
  (define-fun ProcProv3 () Int
    899)
  (define-fun C5_VM2 () Int
    0)
  (define-fun C2_VM1 () Int
    0)
  (define-fun C4_VM2 () Int
    0)
  (define-fun C3_VM2 () Int
    0)
  (define-fun C3_VM4 () Int
    0)
  (define-fun C4_VM4 () Int
    0)
  (define-fun C2_VM2 () Int
    0)
  (define-fun C5_VM3 () Int
    0)
  (define-fun C2_VM3 () Int
    0)
  (define-fun VM5Type () Int
    10)
  (define-fun PriceProv2 () Int
    480)
  (define-fun C2_VM4 () Int
    0)
  (define-fun ProcProv2 () Int
    3600)
  (define-fun C3_VM1 () Int
    0)
  (define-fun MemProv1 () Int
    6749)
  (define-fun C5_VM1 () Int
    0)
  (define-fun C1_VM1 () Int
    0)
)
(objectives
 ( 4)
 ((+ 0 PriceProv1 PriceProv2 PriceProv3 PriceProv4 PriceProv5) 1200)
)
(:added-eqs                   39502
 :arith-eq-adapter            8909
 :arith-bound-propagations-lp 766
 :arith-conflicts             14
 :arith-diseq                 36907
 :arith-fixed-eqs             114
 :arith-lower                 54079
 :arith-make-feasible         7541
 :arith-max-columns           107
 :arith-max-rows              17
 :arith-upper                 27983
 :binary-propagations         218070
 :conflicts                   1391
 :decisions                   21825
 :del-clause                  8050
 :final-checks                31
 :max-memory                  40.28
 :maxsat-cores                2
 :memory                      40.28
 :minimized-lits              8021
 :mk-bool-var                 18619
 :mk-clause                   9039
 :mk-clause-binary            2483
 :num-allocs                  6129070
 :num-checks                  31
 :pb-conflicts                645
 :pb-predicates               254
 :pb-propagations             541
 :pb-resolves                 644
 :propagations                304757
 :restarts                    11
 :rlimit-count                2031916
 :solve-eqs-elim-vars         2
 :solve-eqs-steps             16
 :time                        0.11
 :total-time                  0.11)
